(set-logic QF_NRA)
; benchmark generated from python API
(set-info :status unknown)
(declare-fun v1y () Real)
(declare-fun oy () Real)
(declare-fun v1x () Real)
(declare-fun R2 () Real)
(declare-fun xy () Real)
(declare-fun b1y () Real)
(declare-fun xx () Real)
(declare-fun b1x () Real)
(declare-fun rho2 () Real)
(declare-fun b2y () Real)
(declare-fun b2x () Real)
(declare-fun b3y () Real)
(declare-fun b3x () Real)
(declare-fun b4y () Real)
(declare-fun b4x () Real)
(assert
 (let ((?x26 (* (- 1.0) v1x)))
 (let ((?x25 (* (- 1.0) R2)))
 (let ((?x33 (+ (+ (+ (+ (/ 1.0 4.0) (* oy oy)) (* v1x v1x)) (* v1y v1y)) ?x25)))
 (= (+ (+ ?x33 ?x26) (* (* (- 2.0) oy) v1y)) 0.0)))))
(assert
 (= (+ (+ (/ 1.0 4.0) (* oy oy)) (* (- 1.0) R2)) 0.0))
(assert
 (let ((?x44 (* (- 1.0) rho2)))
 (let ((?x43 (* xy xy)))
 (let ((?x52 (+ (+ (+ (+ (* b1x b1x) (* b1y b1y)) (* xx xx)) ?x43) ?x44)))
 (= (+ (+ ?x52 (* (* (- 2.0) b1x) xx)) (* (* (- 2.0) b1y) xy)) 0.0)))))
(assert
 (let ((?x44 (* (- 1.0) rho2)))
 (let ((?x43 (* xy xy)))
 (let ((?x65 (+ (+ (+ (+ (* b2x b2x) (* b2y b2y)) (* xx xx)) ?x43) ?x44)))
 (= (+ (+ ?x65 (* (* (- 2.0) b2x) xx)) (* (* (- 2.0) b2y) xy)) 0.0)))))
(assert
 (let ((?x44 (* (- 1.0) rho2)))
 (let ((?x43 (* xy xy)))
 (let ((?x78 (+ (+ (+ (+ (* b3x b3x) (* b3y b3y)) (* xx xx)) ?x43) ?x44)))
 (= (+ (+ ?x78 (* (* (- 2.0) b3x) xx)) (* (* (- 2.0) b3y) xy)) 0.0)))))
(assert
 (let ((?x44 (* (- 1.0) rho2)))
 (let ((?x43 (* xy xy)))
 (let ((?x91 (+ (+ (+ (+ (* b4x b4x) (* b4y b4y)) (* xx xx)) ?x43) ?x44)))
 (= (+ (+ ?x91 (* (* (- 2.0) b4x) xx)) (* (* (- 2.0) b4y) xy)) 0.0)))))
(assert
 (let ((?x105 (+ (+ (+ (+ (- (/ 1.0 4.0)) R2) xx) (* (- 1.0) (* oy oy))) (* (- 1.0) (* xx xx)))))
 (>= (+ (+ ?x105 (* (- 1.0) (* xy xy))) (* (* 2.0 oy) xy)) 0.0)))
(assert
 (let ((?x21 (* oy oy)))
 (let ((?x96 (* (- 1.0) ?x21)))
 (let ((?x115 (+ (+ (+ (+ (- (/ 1.0 4.0)) R2) b1x) (* (- 1.0) (* b1x b1x))) (* (- 1.0) (* b1y b1y)))))
 (>= (+ (+ ?x115 ?x96) (* (* 2.0 b1y) oy)) 0.0)))))
(assert
 (let ((?x21 (* oy oy)))
 (let ((?x96 (* (- 1.0) ?x21)))
 (let ((?x125 (+ (+ (+ (+ (- (/ 1.0 4.0)) R2) b2x) (* (- 1.0) (* b2x b2x))) (* (- 1.0) (* b2y b2y)))))
 (>= (+ (+ ?x125 ?x96) (* (* 2.0 b2y) oy)) 0.0)))))
(assert
 (let ((?x21 (* oy oy)))
 (let ((?x96 (* (- 1.0) ?x21)))
 (let ((?x135 (+ (+ (+ (+ (- (/ 1.0 4.0)) R2) b3x) (* (- 1.0) (* b3x b3x))) (* (- 1.0) (* b3y b3y)))))
 (>= (+ (+ ?x135 ?x96) (* (* 2.0 b3y) oy)) 0.0)))))
(assert
 (let ((?x21 (* oy oy)))
 (let ((?x96 (* (- 1.0) ?x21)))
 (let ((?x145 (+ (+ (+ (+ (- (/ 1.0 4.0)) R2) b4x) (* (- 1.0) (* b4x b4x))) (* (- 1.0) (* b4y b4y)))))
 (>= (+ (+ ?x145 ?x96) (* (* 2.0 b4y) oy)) 0.0)))))
(assert
 (>= (+ (+ (* v1x v1x) (* v1y v1y)) (* (- 1.0) v1x)) 0.0))
(assert
 (>= v1x 0.0))
(assert
 (>= (+ 1.0 (* (- 1.0) v1x)) 0.0))
(assert
 (> R2 0.0))
(assert
 (> rho2 0.0))
(assert
 (let ((?x158 (* (- 1.0) v1y)))
 (let ((?x159 (* ?x158 xy)))
 (> ?x159 0.0))))
(assert
 (let ((?x166 (+ (+ (* v1y v1y) (* (* (- 1.0) v1y) xy)) (* (* (- 1.0) xx) (* v1y v1y)))))
 (> (+ ?x166 (* (* v1x v1y) xy)) 0.0)))
(assert
 (> (+ (* xx (* v1y v1y)) (* (* (* (- 1.0) v1x) v1y) xy)) 0.0))
(assert
 (> (* b1y v1y) 0.0))
(assert
 (let ((?x180 (* b1y v1x)))
 (let ((?x181 (* ?x180 v1y)))
 (let ((?x183 (+ (+ (* v1y v1y) (* (* (- 1.0) b1x) (* v1y v1y))) (* (* (- 1.0) b1y) v1y))))
 (> (+ ?x183 ?x181) 0.0)))))
(assert
 (> (+ (* (* (- 1.0) b1x) (* v1y v1y)) (* (* b1y v1x) v1y)) 0.0))
(assert
 (> (* b2y v1y) 0.0))
(assert
 (let ((?x194 (* b2y v1x)))
 (let ((?x195 (* ?x194 v1y)))
 (let ((?x197 (+ (+ (* v1y v1y) (* (* (- 1.0) b2x) (* v1y v1y))) (* (* (- 1.0) b2y) v1y))))
 (> (+ ?x197 ?x195) 0.0)))))
(assert
 (> (+ (* (* (- 1.0) b2x) (* v1y v1y)) (* (* b2y v1x) v1y)) 0.0))
(assert
 (> (* b3y v1y) 0.0))
(assert
 (let ((?x208 (* b3y v1x)))
 (let ((?x209 (* ?x208 v1y)))
 (let ((?x211 (+ (+ (* v1y v1y) (* (* (- 1.0) b3x) (* v1y v1y))) (* (* (- 1.0) b3y) v1y))))
 (> (+ ?x211 ?x209) 0.0)))))
(assert
 (> (+ (* (* (- 1.0) b3x) (* v1y v1y)) (* (* b3y v1x) v1y)) 0.0))
(assert
 (> (* b4y v1y) 0.0))
(assert
 (let ((?x222 (* b4y v1x)))
 (let ((?x223 (* ?x222 v1y)))
 (let ((?x225 (+ (+ (* v1y v1y) (* (* (- 1.0) b4x) (* v1y v1y))) (* (* (- 1.0) b4y) v1y))))
 (> (+ ?x225 ?x223) 0.0)))))
(assert
 (> (+ (* (* (- 1.0) b4x) (* v1y v1y)) (* (* b4y v1x) v1y)) 0.0))
(assert
 (let ((?x230 (* (- 1.0) xy)))
 (> ?x230 0.0)))
(assert
 (> (+ (* v1y xx) (* (* (- 1.0) v1x) xy)) 0.0))
(assert
 (> (+ (* b1y xx) (* (* (- 1.0) b1x) xy)) 0.0))
(assert
 (> (+ (* b2y xx) (* (* (- 1.0) b2x) xy)) 0.0))
(assert
 (> (+ (* b3y xx) (* (* (- 1.0) b3x) xy)) 0.0))
(assert
 (> (+ (* b4y xx) (* (* (- 1.0) b4x) xy)) 0.0))
(assert
 (> v1y 0.0))
(assert
 (> b1y 0.0))
(assert
 (> b2y 0.0))
(assert
 (> b3y 0.0))
(assert
 (> b4y 0.0))
(assert
 (> (+ (* b1y v1x) (* (* (- 1.0) b1x) v1y)) 0.0))
(assert
 (> (+ (* b2y v1x) (* (* (- 1.0) b2x) v1y)) 0.0))
(assert
 (> (+ (* b3y v1x) (* (* (- 1.0) b3x) v1y)) 0.0))
(assert
 (> (+ (* b4y v1x) (* (* (- 1.0) b4x) v1y)) 0.0))
(assert
 (> (+ (* b1x b2y) (* (* (- 1.0) b1y) b2x)) 0.0))
(assert
 (> (+ (* b1x b3y) (* (* (- 1.0) b1y) b3x)) 0.0))
(assert
 (> (+ (* b1x b4y) (* (* (- 1.0) b1y) b4x)) 0.0))
(assert
 (> (+ (* b2x b3y) (* (* (- 1.0) b2y) b3x)) 0.0))
(assert
 (> (+ (* b2x b4y) (* (* (- 1.0) b2y) b4x)) 0.0))
(assert
 (> (+ (* b3x b4y) (* (* (- 1.0) b3y) b4x)) 0.0))
(assert
 (let ((?x297 (+ (+ (+ v1y (* (- 1.0) xy)) (* v1x xy)) (* (* (- 1.0) v1y) xx))))
 (> ?x297 0.0)))
(assert
 (let ((?x178 (* (- 1.0) b1y)))
 (let ((?x300 (* ?x178 xx)))
 (> (+ (+ (+ b1y (* (- 1.0) xy)) (* b1x xy)) ?x300) 0.0))))
(assert
 (let ((?x192 (* (- 1.0) b2y)))
 (let ((?x306 (* ?x192 xx)))
 (> (+ (+ (+ b2y (* (- 1.0) xy)) (* b2x xy)) ?x306) 0.0))))
(assert
 (let ((?x206 (* (- 1.0) b3y)))
 (let ((?x312 (* ?x206 xx)))
 (> (+ (+ (+ b3y (* (- 1.0) xy)) (* b3x xy)) ?x312) 0.0))))
(assert
 (let ((?x220 (* (- 1.0) b4y)))
 (let ((?x318 (* ?x220 xx)))
 (> (+ (+ (+ b4y (* (- 1.0) xy)) (* b4x xy)) ?x318) 0.0))))
(assert
 (let ((?x26 (* (- 1.0) v1x)))
 (let ((?x233 (* ?x26 xy)))
 (let ((?x178 (* (- 1.0) b1y)))
 (let ((?x300 (* ?x178 xx)))
 (let ((?x176 (* (- 1.0) b1x)))
 (let ((?x257 (* ?x176 v1y)))
 (let ((?x326 (+ (+ (+ (+ (* b1x xy) (* b1y v1x)) (* v1y xx)) ?x257) ?x300)))
 (> (+ ?x326 ?x233) 0.0)))))))))
(assert
 (let ((?x26 (* (- 1.0) v1x)))
 (let ((?x233 (* ?x26 xy)))
 (let ((?x192 (* (- 1.0) b2y)))
 (let ((?x306 (* ?x192 xx)))
 (let ((?x190 (* (- 1.0) b2x)))
 (let ((?x260 (* ?x190 v1y)))
 (let ((?x332 (+ (+ (+ (+ (* b2x xy) (* b2y v1x)) (* v1y xx)) ?x260) ?x306)))
 (> (+ ?x332 ?x233) 0.0)))))))))
(assert
 (let ((?x26 (* (- 1.0) v1x)))
 (let ((?x233 (* ?x26 xy)))
 (let ((?x206 (* (- 1.0) b3y)))
 (let ((?x312 (* ?x206 xx)))
 (let ((?x204 (* (- 1.0) b3x)))
 (let ((?x263 (* ?x204 v1y)))
 (let ((?x338 (+ (+ (+ (+ (* b3x xy) (* b3y v1x)) (* v1y xx)) ?x263) ?x312)))
 (> (+ ?x338 ?x233) 0.0)))))))))
(assert
 (let ((?x26 (* (- 1.0) v1x)))
 (let ((?x233 (* ?x26 xy)))
 (let ((?x220 (* (- 1.0) b4y)))
 (let ((?x318 (* ?x220 xx)))
 (let ((?x218 (* (- 1.0) b4x)))
 (let ((?x266 (* ?x218 v1y)))
 (let ((?x344 (+ (+ (+ (+ (* b4x xy) (* b4y v1x)) (* v1y xx)) ?x266) ?x318)))
 (> (+ ?x344 ?x233) 0.0)))))))))
(assert
 (let ((?x192 (* (- 1.0) b2y)))
 (let ((?x306 (* ?x192 xx)))
 (let ((?x178 (* (- 1.0) b1y)))
 (let ((?x270 (* ?x178 b2x)))
 (let ((?x176 (* (- 1.0) b1x)))
 (let ((?x237 (* ?x176 xy)))
 (let ((?x350 (+ (+ (+ (+ (* b1x b2y) (* b1y xx)) (* b2x xy)) ?x237) ?x270)))
 (> (+ ?x350 ?x306) 0.0)))))))))
(assert
 (let ((?x206 (* (- 1.0) b3y)))
 (let ((?x312 (* ?x206 xx)))
 (let ((?x178 (* (- 1.0) b1y)))
 (let ((?x274 (* ?x178 b3x)))
 (let ((?x176 (* (- 1.0) b1x)))
 (let ((?x237 (* ?x176 xy)))
 (let ((?x356 (+ (+ (+ (+ (* b1x b3y) (* b1y xx)) (* b3x xy)) ?x237) ?x274)))
 (> (+ ?x356 ?x312) 0.0)))))))))
(assert
 (let ((?x220 (* (- 1.0) b4y)))
 (let ((?x318 (* ?x220 xx)))
 (let ((?x178 (* (- 1.0) b1y)))
 (let ((?x278 (* ?x178 b4x)))
 (let ((?x176 (* (- 1.0) b1x)))
 (let ((?x237 (* ?x176 xy)))
 (let ((?x362 (+ (+ (+ (+ (* b1x b4y) (* b1y xx)) (* b4x xy)) ?x237) ?x278)))
 (> (+ ?x362 ?x318) 0.0)))))))))
(assert
 (let ((?x206 (* (- 1.0) b3y)))
 (let ((?x312 (* ?x206 xx)))
 (let ((?x192 (* (- 1.0) b2y)))
 (let ((?x282 (* ?x192 b3x)))
 (let ((?x190 (* (- 1.0) b2x)))
 (let ((?x241 (* ?x190 xy)))
 (let ((?x368 (+ (+ (+ (+ (* b2x b3y) (* b2y xx)) (* b3x xy)) ?x241) ?x282)))
 (> (+ ?x368 ?x312) 0.0)))))))))
(assert
 (let ((?x220 (* (- 1.0) b4y)))
 (let ((?x318 (* ?x220 xx)))
 (let ((?x192 (* (- 1.0) b2y)))
 (let ((?x286 (* ?x192 b4x)))
 (let ((?x190 (* (- 1.0) b2x)))
 (let ((?x241 (* ?x190 xy)))
 (let ((?x374 (+ (+ (+ (+ (* b2x b4y) (* b2y xx)) (* b4x xy)) ?x241) ?x286)))
 (> (+ ?x374 ?x318) 0.0)))))))))
(assert
 (let ((?x220 (* (- 1.0) b4y)))
 (let ((?x318 (* ?x220 xx)))
 (let ((?x206 (* (- 1.0) b3y)))
 (let ((?x290 (* ?x206 b4x)))
 (let ((?x204 (* (- 1.0) b3x)))
 (let ((?x245 (* ?x204 xy)))
 (let ((?x380 (+ (+ (+ (+ (* b3x b4y) (* b3y xx)) (* b4x xy)) ?x245) ?x290)))
 (> (+ ?x380 ?x318) 0.0)))))))))
(assert
 (let ((?x176 (* (- 1.0) b1x)))
 (let ((?x257 (* ?x176 v1y)))
 (> (+ (+ (+ v1y (* (- 1.0) b1y)) (* b1y v1x)) ?x257) 0.0))))
(assert
 (let ((?x190 (* (- 1.0) b2x)))
 (let ((?x260 (* ?x190 v1y)))
 (> (+ (+ (+ v1y (* (- 1.0) b2y)) (* b2y v1x)) ?x260) 0.0))))
(assert
 (let ((?x204 (* (- 1.0) b3x)))
 (let ((?x263 (* ?x204 v1y)))
 (> (+ (+ (+ v1y (* (- 1.0) b3y)) (* b3y v1x)) ?x263) 0.0))))
(assert
 (let ((?x218 (* (- 1.0) b4x)))
 (let ((?x266 (* ?x218 v1y)))
 (> (+ (+ (+ v1y (* (- 1.0) b4y)) (* b4y v1x)) ?x266) 0.0))))
(assert
 (let ((?x178 (* (- 1.0) b1y)))
 (let ((?x270 (* ?x178 b2x)))
 (> (+ (+ (+ b1y (* (- 1.0) b2y)) (* b1x b2y)) ?x270) 0.0))))
(assert
 (let ((?x178 (* (- 1.0) b1y)))
 (let ((?x274 (* ?x178 b3x)))
 (> (+ (+ (+ b1y (* (- 1.0) b3y)) (* b1x b3y)) ?x274) 0.0))))
(assert
 (let ((?x178 (* (- 1.0) b1y)))
 (let ((?x278 (* ?x178 b4x)))
 (> (+ (+ (+ b1y (* (- 1.0) b4y)) (* b1x b4y)) ?x278) 0.0))))
(assert
 (let ((?x192 (* (- 1.0) b2y)))
 (let ((?x282 (* ?x192 b3x)))
 (> (+ (+ (+ b2y (* (- 1.0) b3y)) (* b2x b3y)) ?x282) 0.0))))
(assert
 (let ((?x192 (* (- 1.0) b2y)))
 (let ((?x286 (* ?x192 b4x)))
 (> (+ (+ (+ b2y (* (- 1.0) b4y)) (* b2x b4y)) ?x286) 0.0))))
(assert
 (let ((?x206 (* (- 1.0) b3y)))
 (let ((?x290 (* ?x206 b4x)))
 (> (+ (+ (+ b3y (* (- 1.0) b4y)) (* b3x b4y)) ?x290) 0.0))))
(assert
 (let ((?x178 (* (- 1.0) b1y)))
 (let ((?x270 (* ?x178 b2x)))
 (let ((?x176 (* (- 1.0) b1x)))
 (let ((?x257 (* ?x176 v1y)))
 (let ((?x428 (+ (+ (+ (+ (* b1x b2y) (* b1y v1x)) (* b2x v1y)) ?x257) ?x270)))
 (> (+ ?x428 (* (* (- 1.0) b2y) v1x)) 0.0)))))))
(assert
 (let ((?x206 (* (- 1.0) b3y)))
 (let ((?x432 (* ?x206 v1x)))
 (let ((?x178 (* (- 1.0) b1y)))
 (let ((?x274 (* ?x178 b3x)))
 (let ((?x176 (* (- 1.0) b1x)))
 (let ((?x257 (* ?x176 v1y)))
 (let ((?x436 (+ (+ (+ (+ (* b1x b3y) (* b1y v1x)) (* b3x v1y)) ?x257) ?x274)))
 (> (+ ?x436 ?x432) 0.0)))))))))
(assert
 (let ((?x220 (* (- 1.0) b4y)))
 (let ((?x440 (* ?x220 v1x)))
 (let ((?x178 (* (- 1.0) b1y)))
 (let ((?x278 (* ?x178 b4x)))
 (let ((?x176 (* (- 1.0) b1x)))
 (let ((?x257 (* ?x176 v1y)))
 (let ((?x444 (+ (+ (+ (+ (* b1x b4y) (* b1y v1x)) (* b4x v1y)) ?x257) ?x278)))
 (> (+ ?x444 ?x440) 0.0)))))))))
(assert
 (let ((?x206 (* (- 1.0) b3y)))
 (let ((?x432 (* ?x206 v1x)))
 (let ((?x192 (* (- 1.0) b2y)))
 (let ((?x282 (* ?x192 b3x)))
 (let ((?x190 (* (- 1.0) b2x)))
 (let ((?x260 (* ?x190 v1y)))
 (let ((?x450 (+ (+ (+ (+ (* b2x b3y) (* b2y v1x)) (* b3x v1y)) ?x260) ?x282)))
 (> (+ ?x450 ?x432) 0.0)))))))))
(assert
 (let ((?x220 (* (- 1.0) b4y)))
 (let ((?x440 (* ?x220 v1x)))
 (let ((?x192 (* (- 1.0) b2y)))
 (let ((?x286 (* ?x192 b4x)))
 (let ((?x190 (* (- 1.0) b2x)))
 (let ((?x260 (* ?x190 v1y)))
 (let ((?x456 (+ (+ (+ (+ (* b2x b4y) (* b2y v1x)) (* b4x v1y)) ?x260) ?x286)))
 (> (+ ?x456 ?x440) 0.0)))))))))
(assert
 (let ((?x220 (* (- 1.0) b4y)))
 (let ((?x440 (* ?x220 v1x)))
 (let ((?x206 (* (- 1.0) b3y)))
 (let ((?x290 (* ?x206 b4x)))
 (let ((?x204 (* (- 1.0) b3x)))
 (let ((?x263 (* ?x204 v1y)))
 (let ((?x462 (+ (+ (+ (+ (* b3x b4y) (* b3y v1x)) (* b4x v1y)) ?x263) ?x290)))
 (> (+ ?x462 ?x440) 0.0)))))))))
(assert
 (let ((?x192 (* (- 1.0) b2y)))
 (let ((?x282 (* ?x192 b3x)))
 (let ((?x178 (* (- 1.0) b1y)))
 (let ((?x270 (* ?x178 b2x)))
 (let ((?x469 (+ (+ (+ (* b1x b2y) (* b1y b3x)) (* b2x b3y)) (* (* (- 1.0) b1x) b3y))))
 (> (+ (+ ?x469 ?x270) ?x282) 0.0)))))))
(assert
 (let ((?x192 (* (- 1.0) b2y)))
 (let ((?x286 (* ?x192 b4x)))
 (let ((?x178 (* (- 1.0) b1y)))
 (let ((?x270 (* ?x178 b2x)))
 (let ((?x176 (* (- 1.0) b1x)))
 (let ((?x474 (* ?x176 b4y)))
 (let ((?x478 (+ (+ (+ (+ (* b1x b2y) (* b1y b4x)) (* b2x b4y)) ?x474) ?x270)))
 (> (+ ?x478 ?x286) 0.0)))))))))
(assert
 (let ((?x206 (* (- 1.0) b3y)))
 (let ((?x290 (* ?x206 b4x)))
 (let ((?x178 (* (- 1.0) b1y)))
 (let ((?x274 (* ?x178 b3x)))
 (let ((?x176 (* (- 1.0) b1x)))
 (let ((?x474 (* ?x176 b4y)))
 (let ((?x484 (+ (+ (+ (+ (* b1x b3y) (* b1y b4x)) (* b3x b4y)) ?x474) ?x274)))
 (> (+ ?x484 ?x290) 0.0)))))))))
(assert
 (let ((?x206 (* (- 1.0) b3y)))
(let ((?x290 (* ?x206 b4x)))
(let ((?x192 (* (- 1.0) b2y)))
(let ((?x282 (* ?x192 b3x)))
(let ((?x491 (+ (+ (+ (* b2x b3y) (* b2y b4x)) (* b3x b4y)) (* (* (- 1.0) b2x) b4y))))
(> (+ (+ ?x491 ?x282) ?x290) 0.0)))))))
(check-sat)
